30_3_3.dat
100001111101000100010111110111
000110110111101111101011000100